n_res = 4;
rc = [ 25, 21, 16, 15 ];
n_tasks = 30;
d = [ 9, 9, 8, 1, 6, 6, 2, 6, 7, 1, 4, 5, 10, 10, 5, 7, 2, 10, 10, 6, 1, 9, 7, 10, 8, 8, 1, 8, 3, 8 ];
rr = [| 25, 25, 25, 25, 25, 25, 25, 25, 25, 25, 25, 25, 25, 25, 25, 25, 25, 25, 25, 25, 25, 25, 25, 25, 25, 25, 25, 25, 25, 25
      | 21, 21, 21, 21, 21, 21, 21, 21, 21, 21, 21, 21, 21, 21, 21, 21, 21, 21, 21, 21, 21, 21, 21, 21, 21, 21, 21, 21, 21, 21
      | 16, 16, 16, 16, 16, 16, 16, 16, 16, 16, 16, 16, 16, 16, 16, 16, 16, 16, 16, 16, 16, 16, 16, 16, 16, 16, 16, 16, 16, 16
      | 15, 15, 15, 15, 15, 15, 15, 15, 15, 15, 15, 15, 15, 15, 15, 15, 15, 15, 15, 15, 15, 15, 15, 15, 15, 15, 15, 15, 15, 15|];
suc = [ { 4, 7, 8 },
       { 9, 10, 11 },
       { 5, 6, 17 },
       { 9, 10, 15 },
       { 12, 18, 25 },
       { 9, 11, 15 },
       { 10 },
       { 12, 20, 21 },
       { 13, 23, 25 },
       { 20, 21, 25 },
       { 19, 23, 24 },
       { 15, 16, 19 },
       { 14, 16 },
       { 18, 20, 30 },
       { 22, 23, 29 },
       { 22, 28 },
       { 18, 19, 27 },
       { 21, 24 },
       { 22, 26 },
       { 24 },
       { 28 },
       { 30 },
       { 26, 27 },
       { 29 },
       { 26, 27, 29 },
       { 30 },
       { 28 },
       {  },
       {  },
       {  } ];
